c File: flat50_3_0.col
c
c SOURCE: Joseph Culberson (joe@cs.ualberta.ca)
c DESCRIPTION: Quasi-random coloring problem
c              generated with flatness = 0
c                             probability = 0.139
c                             known coloring = 3
c                             random seed = 1315
c              Creation Date:  Tue Jun  9 12:06:21 1998
c Maximum degree = 8 Minimum degree = 1
c p edge 50 115
c cnf created by edge2cnf
p cnf 150 545
-1 -2 0
-1 -3 0
-2 -3 0
1 2 3 0
-4 -5 0
-4 -6 0
-5 -6 0
4 5 6 0
-7 -8 0
-7 -9 0
-8 -9 0
7 8 9 0
-10 -11 0
-10 -12 0
-11 -12 0
10 11 12 0
-13 -14 0
-13 -15 0
-14 -15 0
13 14 15 0
-16 -17 0
-16 -18 0
-17 -18 0
16 17 18 0
-19 -20 0
-19 -21 0
-20 -21 0
19 20 21 0
-22 -23 0
-22 -24 0
-23 -24 0
22 23 24 0
-25 -26 0
-25 -27 0
-26 -27 0
25 26 27 0
-28 -29 0
-28 -30 0
-29 -30 0
28 29 30 0
-31 -32 0
-31 -33 0
-32 -33 0
31 32 33 0
-34 -35 0
-34 -36 0
-35 -36 0
34 35 36 0
-37 -38 0
-37 -39 0
-38 -39 0
37 38 39 0
-40 -41 0
-40 -42 0
-41 -42 0
40 41 42 0
-43 -44 0
-43 -45 0
-44 -45 0
43 44 45 0
-46 -47 0
-46 -48 0
-47 -48 0
46 47 48 0
-49 -50 0
-49 -51 0
-50 -51 0
49 50 51 0
-52 -53 0
-52 -54 0
-53 -54 0
52 53 54 0
-55 -56 0
-55 -57 0
-56 -57 0
55 56 57 0
-58 -59 0
-58 -60 0
-59 -60 0
58 59 60 0
-61 -62 0
-61 -63 0
-62 -63 0
61 62 63 0
-64 -65 0
-64 -66 0
-65 -66 0
64 65 66 0
-67 -68 0
-67 -69 0
-68 -69 0
67 68 69 0
-70 -71 0
-70 -72 0
-71 -72 0
70 71 72 0
-73 -74 0
-73 -75 0
-74 -75 0
73 74 75 0
-76 -77 0
-76 -78 0
-77 -78 0
76 77 78 0
-79 -80 0
-79 -81 0
-80 -81 0
79 80 81 0
-82 -83 0
-82 -84 0
-83 -84 0
82 83 84 0
-85 -86 0
-85 -87 0
-86 -87 0
85 86 87 0
-88 -89 0
-88 -90 0
-89 -90 0
88 89 90 0
-91 -92 0
-91 -93 0
-92 -93 0
91 92 93 0
-94 -95 0
-94 -96 0
-95 -96 0
94 95 96 0
-97 -98 0
-97 -99 0
-98 -99 0
97 98 99 0
-100 -101 0
-100 -102 0
-101 -102 0
100 101 102 0
-103 -104 0
-103 -105 0
-104 -105 0
103 104 105 0
-106 -107 0
-106 -108 0
-107 -108 0
106 107 108 0
-109 -110 0
-109 -111 0
-110 -111 0
109 110 111 0
-112 -113 0
-112 -114 0
-113 -114 0
112 113 114 0
-115 -116 0
-115 -117 0
-116 -117 0
115 116 117 0
-118 -119 0
-118 -120 0
-119 -120 0
118 119 120 0
-121 -122 0
-121 -123 0
-122 -123 0
121 122 123 0
-124 -125 0
-124 -126 0
-125 -126 0
124 125 126 0
-127 -128 0
-127 -129 0
-128 -129 0
127 128 129 0
-130 -131 0
-130 -132 0
-131 -132 0
130 131 132 0
-133 -134 0
-133 -135 0
-134 -135 0
133 134 135 0
-136 -137 0
-136 -138 0
-137 -138 0
136 137 138 0
-139 -140 0
-139 -141 0
-140 -141 0
139 140 141 0
-142 -143 0
-142 -144 0
-143 -144 0
142 143 144 0
-145 -146 0
-145 -147 0
-146 -147 0
145 146 147 0
-148 -149 0
-148 -150 0
-149 -150 0
148 149 150 0
-100 -1 0
-101 -2 0
-102 -3 0
-103 -1 0
-104 -2 0
-105 -3 0
-148 -1 0
-149 -2 0
-150 -3 0
-52 -4 0
-53 -5 0
-54 -6 0
-55 -4 0
-56 -5 0
-57 -6 0
-58 -4 0
-59 -5 0
-60 -6 0
-88 -4 0
-89 -5 0
-90 -6 0
-118 -4 0
-119 -5 0
-120 -6 0
-130 -4 0
-131 -5 0
-132 -6 0
-145 -4 0
-146 -5 0
-147 -6 0
-148 -4 0
-149 -5 0
-150 -6 0
-58 -7 0
-59 -8 0
-60 -9 0
-88 -7 0
-89 -8 0
-90 -9 0
-97 -7 0
-98 -8 0
-99 -9 0
-100 -7 0
-101 -8 0
-102 -9 0
-79 -10 0
-80 -11 0
-81 -12 0
-127 -10 0
-128 -11 0
-129 -12 0
-67 -13 0
-68 -14 0
-69 -15 0
-112 -13 0
-113 -14 0
-114 -15 0
-121 -13 0
-122 -14 0
-123 -15 0
-142 -13 0
-143 -14 0
-144 -15 0
-145 -13 0
-146 -14 0
-147 -15 0
-127 -16 0
-128 -17 0
-129 -18 0
-133 -16 0
-134 -17 0
-135 -18 0
-139 -16 0
-140 -17 0
-141 -18 0
-70 -19 0
-71 -20 0
-72 -21 0
-73 -19 0
-74 -20 0
-75 -21 0
-82 -19 0
-83 -20 0
-84 -21 0
-91 -19 0
-92 -20 0
-93 -21 0
-115 -19 0
-116 -20 0
-117 -21 0
-121 -19 0
-122 -20 0
-123 -21 0
-139 -19 0
-140 -20 0
-141 -21 0
-145 -19 0
-146 -20 0
-147 -21 0
-55 -22 0
-56 -23 0
-57 -24 0
-58 -22 0
-59 -23 0
-60 -24 0
-64 -22 0
-65 -23 0
-66 -24 0
-127 -22 0
-128 -23 0
-129 -24 0
-136 -22 0
-137 -23 0
-138 -24 0
-64 -25 0
-65 -26 0
-66 -27 0
-100 -25 0
-101 -26 0
-102 -27 0
-136 -25 0
-137 -26 0
-138 -27 0
-148 -25 0
-149 -26 0
-150 -27 0
-61 -28 0
-62 -29 0
-63 -30 0
-64 -28 0
-65 -29 0
-66 -30 0
-85 -28 0
-86 -29 0
-87 -30 0
-88 -28 0
-89 -29 0
-90 -30 0
-109 -28 0
-110 -29 0
-111 -30 0
-124 -28 0
-125 -29 0
-126 -30 0
-127 -28 0
-128 -29 0
-129 -30 0
-142 -28 0
-143 -29 0
-144 -30 0
-55 -31 0
-56 -32 0
-57 -33 0
-76 -31 0
-77 -32 0
-78 -33 0
-112 -31 0
-113 -32 0
-114 -33 0
-136 -31 0
-137 -32 0
-138 -33 0
-67 -34 0
-68 -35 0
-69 -36 0
-106 -34 0
-107 -35 0
-108 -36 0
-79 -37 0
-80 -38 0
-81 -39 0
-139 -37 0
-140 -38 0
-141 -39 0
-61 -40 0
-62 -41 0
-63 -42 0
-82 -40 0
-83 -41 0
-84 -42 0
-130 -40 0
-131 -41 0
-132 -42 0
-142 -40 0
-143 -41 0
-144 -42 0
-52 -43 0
-53 -44 0
-54 -45 0
-76 -43 0
-77 -44 0
-78 -45 0
-91 -43 0
-92 -44 0
-93 -45 0
-97 -43 0
-98 -44 0
-99 -45 0
-109 -43 0
-110 -44 0
-111 -45 0
-142 -43 0
-143 -44 0
-144 -45 0
-145 -43 0
-146 -44 0
-147 -45 0
-67 -46 0
-68 -47 0
-69 -48 0
-100 -46 0
-101 -47 0
-102 -48 0
-109 -46 0
-110 -47 0
-111 -48 0
-58 -49 0
-59 -50 0
-60 -51 0
-73 -49 0
-74 -50 0
-75 -51 0
-85 -49 0
-86 -50 0
-87 -51 0
-88 -49 0
-89 -50 0
-90 -51 0
-103 -49 0
-104 -50 0
-105 -51 0
-148 -49 0
-149 -50 0
-150 -51 0
-103 -52 0
-104 -53 0
-105 -54 0
-118 -52 0
-119 -53 0
-120 -54 0
-148 -52 0
-149 -53 0
-150 -54 0
-139 -55 0
-140 -56 0
-141 -57 0
-145 -55 0
-146 -56 0
-147 -57 0
-130 -58 0
-131 -59 0
-132 -60 0
-139 -58 0
-140 -59 0
-141 -60 0
-136 -61 0
-137 -62 0
-138 -63 0
-115 -64 0
-116 -65 0
-117 -66 0
-103 -67 0
-104 -68 0
-105 -69 0
-112 -67 0
-113 -68 0
-114 -69 0
-130 -67 0
-131 -68 0
-132 -69 0
-136 -67 0
-137 -68 0
-138 -69 0
-130 -70 0
-131 -71 0
-132 -72 0
-124 -73 0
-125 -74 0
-126 -75 0
-133 -73 0
-134 -74 0
-135 -75 0
-133 -76 0
-134 -77 0
-135 -78 0
-142 -76 0
-143 -77 0
-144 -78 0
-148 -76 0
-149 -77 0
-150 -78 0
-103 -79 0
-104 -80 0
-105 -81 0
-115 -79 0
-116 -80 0
-117 -81 0
-118 -82 0
-119 -83 0
-120 -84 0
-124 -82 0
-125 -83 0
-126 -84 0
-130 -82 0
-131 -83 0
-132 -84 0
-106 -85 0
-107 -86 0
-108 -87 0
-121 -85 0
-122 -86 0
-123 -87 0
-133 -85 0
-134 -86 0
-135 -87 0
-109 -88 0
-110 -89 0
-111 -90 0
-136 -88 0
-137 -89 0
-138 -90 0
-139 -88 0
-140 -89 0
-141 -90 0
-103 -91 0
-104 -92 0
-105 -93 0
-136 -91 0
-137 -92 0
-138 -93 0
-109 -94 0
-110 -95 0
-111 -96 0
-115 -97 0
-116 -98 0
-117 -99 0
-124 -97 0
-125 -98 0
-126 -99 0
-118 -100 0
-119 -101 0
-120 -102 0
-124 -100 0
-125 -101 0
-126 -102 0
